HUN,8,6,173
2,7,0,16,1,20,3,10,4,16,5,13
1,3,2,18,0,25,5,27,4,22,3,11
2,12,0,20,1,19,5,17,4,30,3,12
0,20,2,17,1,21,5,19,4,15,3,8
2,10,1,26,0,11,4,27,3,5,5,30
0,6,2,10,1,10,4,25,5,23,3,17
2,14,0,9,1,21,3,17,5,27,4,18
0,10,2,15,1,22,3,26,4,4,5,6
